(set-info :smt-lib-version 2.6)
(set-logic QF_UFLRA)
(set-info :source |
MathSat group

|)
(set-info :category "random")
(set-info :status sat)
(declare-fun x0 () Real)
(declare-fun x1 () Real)
(declare-fun x2 () Real)
(declare-fun x3 () Real)
(declare-fun x4 () Real)
(declare-fun x5 () Real)
(declare-fun x6 () Real)
(declare-fun x7 () Real)
(declare-fun x8 () Real)
(declare-fun x9 () Real)
(declare-fun x10 () Real)
(declare-fun x11 () Real)
(declare-fun x12 () Real)
(declare-fun x13 () Real)
(declare-fun x14 () Real)
(declare-fun x15 () Real)
(declare-fun x16 () Real)
(declare-fun x17 () Real)
(declare-fun x18 () Real)
(declare-fun x19 () Real)
(declare-fun x20 () Real)
(declare-fun x21 () Real)
(declare-fun x22 () Real)
(declare-fun x23 () Real)
(declare-fun x24 () Real)
(declare-fun x25 () Real)
(declare-fun x26 () Real)
(declare-fun x27 () Real)
(declare-fun x28 () Real)
(declare-fun x29 () Real)
(declare-fun x30 () Real)
(declare-fun x31 () Real)
(declare-fun x32 () Real)
(declare-fun x33 () Real)
(declare-fun x34 () Real)
(declare-fun x35 () Real)
(declare-fun x36 () Real)
(declare-fun x37 () Real)
(declare-fun x38 () Real)
(declare-fun x39 () Real)
(declare-fun x40 () Real)
(declare-fun x41 () Real)
(declare-fun x42 () Real)
(declare-fun x43 () Real)
(declare-fun x44 () Real)
(declare-fun x45 () Real)
(declare-fun x46 () Real)
(declare-fun x47 () Real)
(declare-fun x48 () Real)
(declare-fun x49 () Real)
(declare-fun f0_1 (Real) Real)
(declare-fun f0_2 (Real Real) Real)
(declare-fun f0_3 (Real Real Real) Real)
(declare-fun f0_4 (Real Real Real Real) Real)
(declare-fun P0 () Bool)
(declare-fun P1 () Bool)
(declare-fun P2 () Bool)
(declare-fun P3 () Bool)
(declare-fun P4 () Bool)
(declare-fun P5 () Bool)
(declare-fun P6 () Bool)
(declare-fun P7 () Bool)
(declare-fun P8 () Bool)
(declare-fun P9 () Bool)
(declare-fun P10 () Bool)
(declare-fun P11 () Bool)
(declare-fun P12 () Bool)
(declare-fun P13 () Bool)
(declare-fun P14 () Bool)
(declare-fun P15 () Bool)
(declare-fun P16 () Bool)
(declare-fun P17 () Bool)
(declare-fun P18 () Bool)
(declare-fun P19 () Bool)
(declare-fun P20 () Bool)
(declare-fun P21 () Bool)
(declare-fun P22 () Bool)
(declare-fun P23 () Bool)
(declare-fun P24 () Bool)
(declare-fun P25 () Bool)
(declare-fun P26 () Bool)
(declare-fun P27 () Bool)
(declare-fun P28 () Bool)
(declare-fun P29 () Bool)
(declare-fun P30 () Bool)
(declare-fun P31 () Bool)
(declare-fun P32 () Bool)
(declare-fun P33 () Bool)
(declare-fun P34 () Bool)
(declare-fun P35 () Bool)
(declare-fun P36 () Bool)
(declare-fun P37 () Bool)
(declare-fun P38 () Bool)
(declare-fun P39 () Bool)
(declare-fun P40 () Bool)
(declare-fun P41 () Bool)
(declare-fun P42 () Bool)
(declare-fun P43 () Bool)
(declare-fun P44 () Bool)
(declare-fun P45 () Bool)
(declare-fun P46 () Bool)
(declare-fun P47 () Bool)
(declare-fun P48 () Bool)
(declare-fun P49 () Bool)
(assert (let ((?v_65 (* 7 x6))) (let ((?v_63 (<= (+ (- ?v_65 (* 6 x43)) (* 7 x40)) 11)) (?v_138 (* 26 x46)) (?v_75 (* 9 x40)) (?v_146 (<= (- (- (* 6 x31) (* 19 x20)) (* 18 x21)) 3)) (?v_148 (* 21 x30)) (?v_147 (* 17 x49)) (?v_89 (<= (- (- (* 13 x18) (* 17 x44)) (* 6 x27)) 7)) (?v_104 (<= (- (+ (* 18 x46) (* 7 x16)) (* 19 x22)) 29)) (?v_151 (* 25 x13))) (let ((?v_78 (< (+ (- ?v_147 (* 17 x14)) (* 7 x37)) 15)) (?v_140 (< (+ (- (* 11 x27) (* 13 x19)) (* 27 x20)) 1)) (?v_50 (distinct (f0_1 x30) (f0_1 x49))) (?v_88 (f0_1 x17))) (let ((?v_99 (= x4 ?v_88)) (?v_95 (distinct x49 (f0_1 x36))) (?v_2 (f0_1 x14))) (let ((?v_42 (distinct ?v_2 x0)) (?v_38 (= (f0_2 x8 x16) (f0_2 x13 x39))) (?v_45 (distinct (f0_2 x38 x41) (f0_2 x45 x40))) (?v_1 (f0_1 x2))) (let ((?v_174 (= ?v_1 x12)) (?v_7 (f0_1 x9))) (let ((?v_72 (distinct (f0_2 x26 x2) ?v_7)) (?v_3 (f0_1 x27))) (let ((?v_0 (distinct x3 ?v_3)) (?v_76 (distinct (f0_2 x10 x15) x48)) (?v_159 (distinct x38 (f0_2 x45 x48))) (?v_43 (f0_1 x11))) (let ((?v_15 (distinct ?v_43 ?v_1)) (?v_23 (= (f0_2 x36 x10) x45)) (?v_90 (= (f0_2 x14 x25) ?v_3)) (?v_157 (= (f0_2 x27 x13) (f0_2 x45 x8))) (?v_238 (distinct x34 x15)) (?v_39 (distinct (f0_2 x29 x12) x49)) (?v_187 (distinct (f0_2 x28 x12) x18)) (?v_246 (= x21 x27)) (?v_113 (distinct (f0_2 x37 x34) (f0_1 x16))) (?v_142 (= ?v_2 (f0_2 x41 x48))) (?v_119 (distinct (f0_2 x28 x14) (f0_2 x9 x7))) (?v_52 (= ?v_88 x22)) (?v_60 (distinct x46 (f0_2 x46 x18))) (?v_59 (f0_1 x22))) (let ((?v_184 (distinct ?v_59 (f0_2 x15 x46))) (?v_54 (= x47 (f0_2 x2 x24))) (?v_162 (= x40 x29)) (?v_123 (= ?v_59 (f0_2 x16 x23))) (?v_135 (= (f0_2 x7 x43) (f0_1 x0))) (?v_163 (distinct x45 (f0_2 x42 x36))) (?v_14 (distinct (f0_1 x37) x9)) (?v_8 (f0_1 x43))) (let ((?v_231 (distinct ?v_8 x21)) (?v_5 (distinct ?v_8 ?v_2)) (?v_27 (= (f0_1 x23) ?v_3)) (?v_130 (= x44 x26)) (?v_83 (= (f0_1 x33) (f0_2 x48 x28))) (?v_34 (distinct ?v_7 (f0_2 x32 x3))) (?v_98 (distinct (f0_2 x15 x13) (f0_2 x38 x34))) (?v_178 (= x5 ?v_59)) (?v_58 (= ?v_1 x30)) (?v_19 (distinct (f0_2 x30 x40) (f0_2 x4 x7))) (?v_109 (= ?v_43 x37)) (?v_182 (= (f0_2 x30 x13) (f0_2 x29 x1))) (?v_189 (distinct x22 (f0_2 x16 x44))) (?v_32 (= (f0_2 x7 x44) (f0_2 x0 x19))) (?v_82 (= x18 x14)) (?v_215 (= x40 x3)) (?v_213 (distinct x45 (f0_1 x28))) (?v_47 (= (f0_2 x44 x5) x27)) (?v_96 (distinct x34 x2)) (?v_11 (not ?v_0)) (?v_30 (not P47))) (let ((?v_117 (not ?v_58)) (?v_197 (not P16)) (?v_71 (not P36)) (?v_18 (not P24)) (?v_6 (not P15)) (?v_67 (not ?v_130)) (?v_106 (not P27)) (?v_115 (not P17)) (?v_31 (not P32)) (?v_10 (not ?v_178)) (?v_74 (not ?v_140)) (?v_21 (not ?v_213)) (?v_79 (not ?v_231)) (?v_232 (not P0)) (?v_16 (not ?v_14)) (?v_236 (not P30)) (?v_158 (not ?v_15)) (?v_44 (not ?v_98)) (?v_225 (not P11)) (?v_121 (not ?v_27)) (?v_69 (not P3)) (?v_112 (not ?v_78)) (?v_155 (not ?v_159)) (?v_46 (not ?v_182)) (?v_101 (not ?v_32)) (?v_53 (not P21)) (?v_211 (not ?v_50)) (?v_167 (not P44)) (?v_175 (not P18)) (?v_41 (not P26)) (?v_125 (not ?v_39)) (?v_57 (not ?v_19)) (?v_85 (not ?v_246)) (?v_48 (not ?v_42)) (?v_177 (not P31)) (?v_66 (not ?v_45)) (?v_233 (not P33)) (?v_181 (not ?v_54)) (?v_91 (not P42)) (?v_70 (not ?v_60)) (?v_200 (not P1)) (?v_116 (not ?v_63)) (?v_136 (not ?v_113)) (?v_203 (not ?v_52)) (?v_194 (not P38)) (?v_97 (not P7)) (?v_143 (not ?v_23)) (?v_111 (not ?v_142)) (?v_239 (not ?v_72)) (?v_168 (not ?v_184)) (?v_87 (not ?v_238)) (?v_129 (not ?v_76)) (?v_93 (not ?v_47)) (?v_114 (not P40)) (?v_149 (not ?v_82)) (?v_102 (not P9)) (?v_122 (not P20)) (?v_128 (not ?v_162)) (?v_169 (not P4)) (?v_165 (not P2)) (?v_118 (not P41)) (?v_120 (not ?v_95)) (?v_107 (not ?v_96)) (?v_183 (not ?v_104)) (?v_110 (not ?v_34)) (?v_204 (not P46)) (?v_240 (not ?v_109)) (?v_234 (not P13)) (?v_226 (not P10)) (?v_216 (not P19)) (?v_186 (not ?v_119)) (?v_209 (not ?v_123)) (?v_255 (not P23)) (?v_161 (not P5)) (?v_212 (not P43)) (?v_134 (not ?v_157)) (?v_210 (not P37)) (?v_156 (not P29)) (?v_190 (not P28)) (?v_145 (not P12)) (?v_230 (not ?v_90)) (?v_237 (not ?v_189)) (?v_195 (not P49)) (?v_150 (not ?v_215)) (?v_220 (not P34)) (?v_224 (not ?v_99)) (?v_166 (not ?v_187)) (?v_171 (not P8)) (?v_198 (not ?v_135)) (?v_221 (not ?v_163)) (?v_173 (not ?v_89)) (?v_229 (not ?v_5)) (?v_219 (not ?v_83)) (?v_193 (not P45)) (?v_223 (not ?v_146)) (?v_218 (not ?v_174)) (?v_262 (not P22)) (?v_214 (not P25)) (?v_242 (not P39)) (?v_258 (not P14)) (?v_257 (not ?v_38)) (?v_256 (not P35)) (?v_251 (not P48)) (?v_49 (<= (+ (* 20 x45) (* 4 x22)) 26)) (?v_12 (<= (- (+ (* 15 x23) (* 11 x3)) x43) 29)) (?v_22 (<= (+ (* 22 x10) (* 22 x25) (* 19 x38)) 0))) (let ((?v_17 (not ?v_22)) (?v_20 (not ?v_12)) (?v_249 (not ?v_49)) (?v_29 (<= (- (* (- 23) x29) (* 23 x3)) 29)) (?v_172 (< (- (+ (* (- 22) x17) (* 25 x40)) (* 10 x21)) (- 4)))) (let ((?v_62 (not ?v_172)) (?v_196 (<= (- (+ (* (- 1) x8) (* 22 x33)) (* 8 x30)) (- 7)))) (let ((?v_81 (not ?v_196)) (?v_37 (<= (+ (* 15 x6) (* 21 x35) ?v_138) (- 14))) (?v_9 (<= (- (* 26 x5) (* 17 x1)) (- 10)))) (let ((?v_35 (not ?v_9)) (?v_13 (< (+ (- (* (- 24) x46) (* 3 x34)) (* 2 x22)) (- 26)))) (let ((?v_24 (not ?v_13)) (?v_25 (* (- 6) x35))) (let ((?v_68 (< (+ (- ?v_25 (* 12 x1)) (* 24 x5)) 26))) (let ((?v_4 (not ?v_68)) (?v_176 (<= (+ (* (- 11) x11) (* 7 x9) (* 8 x6)) (- 16)))) (let ((?v_170 (not ?v_176)) (?v_28 (<= (+ (- (* (- 13) x38) (* 11 x34)) x43) 12))) (let ((?v_92 (not ?v_28)) (?v_26 (< (- (+ (* (- 17) x4) (* 13 x29)) (* 12 x37)) 8))) (let ((?v_73 (not ?v_26)) (?v_86 (distinct (+ (* 16 x32) ?v_148 (* 23 x24)) (- 9))) (?v_144 (distinct (+ (* (- 23) x8) (* 23 x2) ?v_75) (- 14)))) (let ((?v_244 (not ?v_144)) (?v_201 (< (- (+ (* 12 x22) (* 19 x24)) (* 3 x45)) (- 1))) (?v_245 (= (- (- ?v_25 (* 16 x39)) (* 17 x31)) (- 24)))) (let ((?v_55 (not ?v_245)) (?v_36 (distinct (+ (* 23 x37) (* 24 x40) (* 13 x45)) (- 22)))) (let ((?v_208 (not ?v_36)) (?v_202 (distinct (- (- (* (- 22) x32) (* 21 x34)) (* 12 x18)) 19)) (?v_33 (<= (+ (- (* 26 x39) (* 22 x15)) (* 9 x13)) (- 12))) (?v_259 (< (- (+ (* (- 19) x44) (* 20 x47)) (* 4 x3)) 6))) (let ((?v_77 (not ?v_259)) (?v_185 (distinct (- (* (- 26) x27) 0) 17))) (let ((?v_247 (not ?v_185)) (?v_56 (<= (- (+ (* (- 22) x19) (* 26 x1)) (* 2 x48)) (- 27)))) (let ((?v_40 (not ?v_56)) (?v_131 (not ?v_33)) (?v_84 (<= (- (+ (* 10 x28) (* 5 x28)) (* 7 x32)) (- 7))) (?v_61 (< (+ (* (- 5) x46) (* 25 x46) (* 4 x21)) 4))) (let ((?v_51 (not ?v_61)) (?v_64 (<= (- (* (- 1) x36) (* 23 x26)) 3)) (?v_126 (<= (- (- ?v_65 (* 4 x43)) (* 12 x28)) (- 6))) (?v_124 (not ?v_29)) (?v_94 (distinct (+ (- (* (- 6) x26) (* 26 x13)) (* 10 x3)) (- 16)))) (let ((?v_139 (not ?v_94)) (?v_127 (<= (+ (* (- 27) x6) ?v_75 (* 22 x24)) 26))) (let ((?v_217 (not ?v_127)) (?v_80 (<= (+ (- (* (- 24) x16) (* 4 x47)) (* 25 x41)) 9)) (?v_243 (< (- (+ (* (- 20) x44) (* 19 x6)) (* 5 x22)) (- 12)))) (let ((?v_192 (not ?v_243)) (?v_103 (< (+ (- (* (- 9) x25) (* 19 x15)) (* 15 x36)) 24)) (?v_100 (<= (+ (- x38 0) (* 18 x17)) (- 17))) (?v_108 (not ?v_84)) (?v_250 (not ?v_86)) (?v_105 (< (+ x36 (* 27 x33) (* 25 x45)) (- 27)))) (let ((?v_228 (not ?v_105)) (?v_153 (<= (- (- (* (- 7) x47) (* 23 x14)) (* 22 x4)) 20)) (?v_141 (distinct (- (+ (* (- 1) x26) (* 17 x3)) (* 12 x47)) 22))) (let ((?v_261 (not ?v_141)) (?v_164 (distinct (- (+ (* (- 9) x43) ?v_151) 0) 8))) (let ((?v_260 (not ?v_164)) (?v_132 (not ?v_100)) (?v_160 (not ?v_103)) (?v_133 (not ?v_80)) (?v_137 (< (- (- (* 25 x17) (* 7 x4)) 0) (- 13))) (?v_179 (not ?v_126))) (let ((?v_252 (not ?v_137)) (?v_154 (<= (- (+ (* (- 17) x31) ?v_138) 0) (- 26)))) (let ((?v_188 (not ?v_154)) (?v_199 (distinct (- (+ (* (- 19) x32) (* 10 x30)) x3) (- 5))) (?v_253 (< (- (- (* 24 x12) ?v_147) ?v_148) (- 13)))) (let ((?v_152 (not ?v_253)) (?v_205 (= (+ (- (* (- 26) x1) (* 18 x36)) ?v_151) 10)) (?v_191 (not ?v_153)) (?v_180 (not ?v_37)) (?v_227 (<= (+ (- (* 7 x21) (* 2 x3)) (* 11 x25)) (- 25)))) (let ((?v_235 (not ?v_227)) (?v_248 (< (* (- 20) x3) 17))) (let ((?v_207 (not ?v_248)) (?v_206 (not ?v_205)) (?v_241 (not ?v_202)) (?v_222 (not ?v_199)) (?v_254 (not ?v_64))) (and (and (and (and (and (and (and (and (and (and (and (and (and (and (and (and (and (and (and (and (and (and (and (and (and (and (and (and (and (and (and (and (and (and (and (and (and (and (and (and (and (and (and (and (and (and (and (and (and (and (and (and (and (and (and (and (and (and (and (and (and (and (and (and (and (and (and (and (and (and (and (and (and (and (and (and (and (and (and (and (and (and (and (and (and (and (and (and (and (and (and (and (and (and (and (and (and (and (and (and (and (and (and (and (and (and (and (and (and (and (and (and (and (and (and (and (and (and (and (and (and (and (and (and (and (and (and (and (and (and (and (and (and (and (and (and (and (and (and (and (and (and (and (and (and (and (and (and (and (and (and (and (and (and (and (and (and (and (and (and (and (and (and (and (and (and (and (and (and (and (and (and (and (and (and (and (and (and (and (and (and (and (and (and (and (and (and (and (and (and (and (and (and (and (and (and (and (and (and (and (and (and (and (and (and (and (and (and (and (and (and (and (and (and (and (and (and (and (and (and (and (and (and (and (and (and (and (and (and (and (and (and (and (and (and (and (and (and (and (and (and (and (and (and (and (and (and (and (and (and (and (and (and (and (and (and (and (and (and (and (and (and (and (and (and (and (and (and (and (and (and (and (and (and (and (and (and (and (and (and (and (and (and (and (and (and (and (and (and (and (and (and (and (and (and (and (and (and (and (and (and (and (and (and (and (and (and (and (and (and (and (and (and (and (and (and (and (and (and (and (and (and (and (and (and (and (and (and (and (and (and (and (and (and (and (and (and (and (and (and (and (and (and (and (and (and (and (and (and (and (and (and (and (and (and (and (and (and (and (and (and (and (and (and (and (and (and (and (and (and (and (and (and (and (and (and (and (and (and (and (and (and (and (and (and (and (and (and (and (and (and (and (and (and (and (and (and (and (and (and (and (and (and (and (and (and (and (and (and (and (and (and (and (and (and (and (and (and (and (and (and (and (and (and (and (and (and (and (and (and (and (and (and (and (and (and (and (and (and (and (and (and (and (and (and (and (and (and (and (and (and (and (and (and (and (and (and (and (and (and (and (and (and (and (and (and (and (and (and (and (and (and (and (and (and (and (and (and (and (and (and (and (and (and (and (and (and (and (and (and (and (and (and (and (and (and (and (and (and (and (and (and (and (and (and (and (and (and (and (and (and (and (and (and (and (and (and (and (and (and (and (and (and (and (and (and (and (and (and (and (and (and (and (and (and (and (and (and (and (and (and (and (and (and (and (and (and (and (and (and (and (and (and (and (and (and (and (and (and (and (and (and (and (and (and (and (and (and (and (and (and (and (and (and (and (and (and (and (and (and (and (and (and (and (and (and (and (and (and (and (and (and (and (and (and (and (and (and (and (or (or ?v_11 ?v_0) ?v_72) (or (or ?v_83 ?v_29) ?v_0)) (or (or ?v_174 ?v_49) ?v_62)) (or (or ?v_30 ?v_117) ?v_12)) (or (or ?v_197 ?v_5) ?v_42)) (or (or ?v_81 ?v_71) ?v_19)) (or (or ?v_27 ?v_37) ?v_18)) (or (or ?v_6 ?v_67) ?v_106)) (or (or ?v_115 ?v_31) ?v_35)) (or (or ?v_24 ?v_4) ?v_10)) (or (or ?v_4 ?v_74) ?v_5)) (or (or ?v_21 ?v_17) P19)) (or (or ?v_6 ?v_82) P19)) (or (or ?v_34 ?v_14) ?v_79)) (or (or ?v_9 ?v_15) ?v_10)) (or (or ?v_11 ?v_20) ?v_13)) (or (or ?v_232 ?v_16) ?v_170)) (or (or P13 ?v_236) P34)) (or (or ?v_39 P26) ?v_92)) (or (or P11 ?v_158) ?v_54)) (or (or ?v_73 ?v_44) P24)) (or (or ?v_86 ?v_16) ?v_225)) (or (or ?v_45 P29) ?v_13)) (or (or ?v_90 ?v_17) ?v_18)) (or (or ?v_96 ?v_17) ?v_23)) (or (or ?v_19 ?v_38) ?v_244)) (or (or P41 ?v_20) ?v_21)) (or (or ?v_22 ?v_23) ?v_201)) (or (or ?v_14 ?v_24) ?v_52)) (or (or ?v_32 P41) ?v_47)) (or (or ?v_55 ?v_26) ?v_208)) (or (or ?v_202 ?v_121) P16)) (or (or ?v_12 P14) ?v_33)) (or (or ?v_69 P9) P40)) (or (or ?v_28 ?v_29) ?v_112)) (or (or ?v_30 ?v_31) ?v_60)) (or (or ?v_17 P6) P23)) (or (or P9 ?v_155) ?v_46)) (or (or ?v_15 ?v_101) ?v_53)) (or (or ?v_77 ?v_211) ?v_167)) (or (or ?v_95 ?v_247) ?v_40)) (or (or ?v_131 ?v_175) ?v_34)) (or (or ?v_35 ?v_36) P6)) (or (or ?v_41 P20) ?v_17)) (or (or ?v_37 ?v_84) ?v_38)) (or (or ?v_125 ?v_57) ?v_40)) (or (or ?v_41 ?v_85) P48)) (or (or ?v_48 ?v_109) P5)) (or (or ?v_44 ?v_177) ?v_10)) (or (or ?v_51 ?v_66) ?v_46)) (or (or ?v_63 ?v_233) ?v_47)) (or (or ?v_48 ?v_49) ?v_76)) (or (or ?v_50 ?v_32) ?v_51)) (or (or ?v_52 ?v_53) ?v_181)) (or (or ?v_55 ?v_56) ?v_57)) (or (or ?v_58 ?v_123) ?v_91)) (or (or ?v_70 ?v_64) ?v_61)) (or (or ?v_62 ?v_200) ?v_89)) (or (or ?v_116 ?v_64) ?v_136)) (or (or ?v_126 P20) ?v_12)) (or (or ?v_66 ?v_33) (not P6))) (or (or ?v_124 ?v_46) ?v_203)) (or (or P30 ?v_22) P38)) (or (or ?v_67 ?v_53) ?v_194)) (or (or ?v_97 ?v_24) ?v_56)) (or (or P8 P9) ?v_50)) (or (or ?v_104 ?v_68) ?v_18)) (or (or ?v_69 ?v_143) ?v_139)) (or (or ?v_70 ?v_71) P17)) (or (or P19 ?v_111) P20)) (or (or ?v_239 ?v_39) ?v_73)) (or (or ?v_168 P32) ?v_87)) (or (or P5 ?v_74) ?v_217)) (or (or ?v_129 ?v_80) ?v_77)) (or (or ?v_30 ?v_26) ?v_78)) (or (or ?v_69 ?v_79) P4)) (or (or ?v_93 P46) ?v_80)) (or (or ?v_192 ?v_81) ?v_82)) (or (or ?v_83 ?v_114) ?v_103)) (or (or ?v_100 ?v_108) ?v_85)) (or (or P26 ?v_149) ?v_46)) (or (or P46 ?v_33) ?v_102)) (or (or ?v_250 P21) ?v_60)) (or (or ?v_87 ?v_135) ?v_99)) (or (or ?v_89 ?v_13) ?v_90)) (or (or ?v_91 ?v_122) ?v_128)) (or (or ?v_24 ?v_169) ?v_165)) (or (or ?v_29 ?v_57) P28)) (or (or ?v_92 ?v_22) ?v_118)) (or (or ?v_93 ?v_94) ?v_12)) (or (or ?v_228 ?v_51) ?v_120)) (or (or ?v_4 P39) ?v_107)) (or (or ?v_153 ?v_261) ?v_97)) (or (or ?v_13 ?v_98) ?v_38)) (or (or ?v_76 ?v_99) ?v_260)) (or (or ?v_132 ?v_101) ?v_102)) (or (or ?v_160 ?v_56) ?v_183)) (or (or ?v_110 ?v_204) ?v_105)) (or (or ?v_106 ?v_107) P26)) (or (or ?v_74 ?v_108) ?v_72)) (or (or P16 P33) ?v_79)) (or (or P35 P2) ?v_73)) (or (or ?v_107 ?v_61) ?v_17)) (or (or ?v_240 ?v_106) P48)) (or (or P44 ?v_119) ?v_77)) (or (or ?v_110 ?v_111) ?v_234)) (or (or ?v_87 ?v_42) ?v_112)) (or (or ?v_113 P5) ?v_103)) (or (or ?v_103 ?v_226) ?v_62)) (or (or ?v_133 ?v_146) ?v_114)) (or (or ?v_115 ?v_21) ?v_98)) (or (or ?v_61 ?v_16) ?v_82)) (or (or ?v_103 ?v_76) ?v_42)) (or (or ?v_91 ?v_116) ?v_69)) (or (or ?v_117 ?v_216) ?v_118)) (or (or ?v_57 ?v_186) ?v_4)) (or (or ?v_120 ?v_81) ?v_121)) (or (or ?v_64 P48) ?v_122)) (or (or ?v_209 ?v_117) P39)) (or (or ?v_124 ?v_255) ?v_125)) (or (or ?v_137 ?v_179) ?v_127)) (or (or P30 ?v_9) ?v_128)) (or (or P40 P43) P10)) (or (or P10 ?v_80) ?v_129)) (or (or ?v_20 ?v_161) ?v_130)) (or (or ?v_119 ?v_97) ?v_22)) (or (or ?v_212 P34) ?v_16)) (or (or ?v_70 ?v_117) ?v_131)) (or (or P27 ?v_82) ?v_134)) (or (or ?v_132 ?v_37) ?v_74)) (or (or ?v_94 ?v_114) P16)) (or (or P32 ?v_14) ?v_36)) (or (or ?v_133 P15) ?v_210)) (or (or ?v_134 ?v_9) ?v_135)) (or (or P42 ?v_136) ?v_84)) (or (or ?v_252 ?v_124) ?v_156)) (or (or ?v_188 P43) ?v_120)) (or (or P25 ?v_34) P3)) (or (or ?v_139 ?v_190) ?v_26)) (or (or ?v_199 ?v_113) ?v_140)) (or (or ?v_32 ?v_97) ?v_141)) (or (or ?v_12 ?v_46) P31)) (or (or ?v_142 ?v_141) ?v_143)) (or (or ?v_144 ?v_145) ?v_230)) (or (or ?v_136 ?v_145) ?v_146)) (or (or ?v_237 ?v_127) ?v_105)) (or (or ?v_13 ?v_195) ?v_103)) (or (or ?v_152 ?v_150) ?v_33)) (or (or ?v_114 ?v_52) ?v_149)) (or (or ?v_67 ?v_150) P43)) (or (or ?v_106 ?v_135) ?v_205)) (or (or ?v_163 ?v_5) P3)) (or (or ?v_121 ?v_152) ?v_191)) (or (or ?v_134 ?v_50) P32)) (or (or ?v_154 ?v_34) ?v_155)) (or (or ?v_34 ?v_86) ?v_130)) (or (or ?v_83 ?v_156) P22)) (or (or ?v_157 P4) ?v_220)) (or (or ?v_224 ?v_158) ?v_32)) (or (or ?v_132 ?v_64) ?v_159)) (or (or ?v_115 ?v_166) P3)) (or (or ?v_160 ?v_161) ?v_97)) (or (or ?v_84 P46) ?v_80)) (or (or ?v_171 ?v_20) ?v_80)) (or (or ?v_162 ?v_198) ?v_69)) (or (or ?v_63 ?v_221) ?v_164)) (or (or P37 ?v_55) ?v_165)) (or (or P26 ?v_166) ?v_95)) (or (or ?v_167 P25) ?v_84)) (or (or ?v_36 ?v_168) ?v_169)) (or (or P32 ?v_170) ?v_55)) (or (or ?v_139 ?v_73) ?v_171)) (or (or ?v_156 ?v_173) ?v_172)) (or (or ?v_76 ?v_51) ?v_152)) (or (or ?v_121 P32) ?v_41)) (or (or ?v_180 ?v_173) ?v_107)) (or (or ?v_229 ?v_174) ?v_113)) (or (or P35 P41) ?v_134)) (or (or ?v_175 ?v_176) ?v_156)) (or (or ?v_67 P15) ?v_177)) (or (or ?v_71 ?v_178) ?v_179)) (or (or P7 ?v_180) P46)) (or (or ?v_98 ?v_69) ?v_134)) (or (or ?v_33 ?v_104) ?v_50)) (or (or ?v_181 ?v_118) ?v_182)) (or (or ?v_165 P22) ?v_219)) (or (or ?v_66 ?v_54) ?v_183)) (or (or ?v_193 P17) ?v_184)) (or (or ?v_185 ?v_186) ?v_187)) (or (or ?v_182 ?v_149) ?v_188)) (or (or ?v_33 P26) ?v_189)) (or (or ?v_235 ?v_142) ?v_190)) (or (or ?v_102 P43) ?v_46)) (or (or ?v_191 ?v_73) ?v_192)) (or (or ?v_34 ?v_108) ?v_116)) (or (or ?v_119 ?v_93) ?v_154)) (or (or ?v_114 ?v_193) ?v_194)) (or (or ?v_195 ?v_137) ?v_58)) (or (or ?v_55 ?v_196) ?v_123)) (or (or P6 ?v_193) ?v_6)) (or (or ?v_195 P9) ?v_197)) (or (or ?v_160 ?v_62) ?v_207)) (or (or ?v_190 ?v_99) P10)) (or (or ?v_27 P14) ?v_198)) (or (or ?v_199 ?v_200) ?v_201)) (or (or P12 ?v_79) ?v_23)) (or (or ?v_92 ?v_171) ?v_202)) (or (or ?v_146 ?v_203) ?v_114)) (or (or ?v_144 ?v_185) ?v_45)) (or (or ?v_178 ?v_204) ?v_156)) (or (or P7 P30) ?v_129)) (or (or ?v_223 ?v_130) ?v_154)) (or (or ?v_133 ?v_189) ?v_103)) (or (or ?v_18 ?v_18) ?v_206)) (or (or ?v_142 ?v_80) ?v_14)) (or (or ?v_48 P49) ?v_13)) (or (or ?v_76 ?v_32) ?v_34)) (or (or P13 ?v_206) ?v_50)) (or (or ?v_54 P3) ?v_207)) (or (or ?v_73 ?v_97) ?v_69)) (or (or P34 ?v_167) ?v_54)) (or (or P6 ?v_50) ?v_20)) (or (or ?v_202 ?v_189) ?v_218)) (or (or P31 ?v_262) ?v_154)) (or (or ?v_51 ?v_83) ?v_9)) (or (or ?v_19 P33) ?v_115)) (or (or ?v_86 ?v_61) ?v_104)) (or (or ?v_171 ?v_208) ?v_249)) (or (or ?v_77 ?v_81) ?v_177)) (or (or P5 P18) ?v_0)) (or (or P12 ?v_163) ?v_140)) (or (or ?v_209 ?v_210) ?v_211)) (or (or ?v_183 P7) ?v_214)) (or (or ?v_241 P34) ?v_196)) (or (or ?v_212 ?v_222) P20)) (or (or ?v_123 ?v_213) ?v_60)) (or (or ?v_214 ?v_117) ?v_143)) (or (or ?v_18 ?v_215) P23)) (or (or ?v_110 ?v_216) ?v_125)) (or (or P43 ?v_23) ?v_122)) (or (or ?v_183 ?v_217) ?v_133)) (or (or ?v_26 ?v_18) P46)) (or (or ?v_214 ?v_242) ?v_198)) (or (or ?v_51 ?v_139) ?v_218)) (or (or ?v_81 ?v_219) ?v_125)) (or (or ?v_220 ?v_126) ?v_33)) (or (or ?v_181 ?v_16) ?v_221)) (or (or ?v_217 ?v_122) ?v_222)) (or (or ?v_223 ?v_171) ?v_254)) (or (or ?v_165 ?v_51) ?v_159)) (or (or ?v_49 ?v_175) ?v_224)) (or (or ?v_100 ?v_54) ?v_225)) (or (or ?v_191 ?v_162) ?v_98)) (or (or ?v_37 P20) ?v_226)) (or (or ?v_85 P37) ?v_69)) (or (or ?v_155 ?v_9) ?v_190)) (or (or P41 ?v_124) P14)) (or (or ?v_191 ?v_18) ?v_90)) (or (or ?v_87 ?v_227) P36)) (or (or ?v_112 ?v_225) ?v_47)) (or (or ?v_45 ?v_258) ?v_228)) (or (or ?v_98 ?v_38) ?v_78)) (or (or ?v_229 P30) ?v_128)) (or (or ?v_20 ?v_191) ?v_117)) (or (or ?v_62 ?v_154) ?v_230)) (or (or ?v_161 P9) ?v_257)) (or (or ?v_231 ?v_211) P15)) (or (or ?v_54 ?v_34) P18)) (or (or ?v_53 ?v_215) ?v_169)) (or (or ?v_172 ?v_46) P38)) (or (or ?v_74 P4) ?v_0)) (or (or ?v_144 ?v_101) ?v_214)) (or (or P19 ?v_109) ?v_119)) (or (or ?v_170 P28) ?v_165)) (or (or ?v_10 ?v_110) ?v_232)) (or (or ?v_86 P27) ?v_134)) (or (or ?v_146 ?v_29) ?v_177)) (or (or ?v_109 P16) P28)) (or (or ?v_68 ?v_216) ?v_233)) (or (or ?v_12 ?v_34) P42)) (or (or P1 ?v_72) ?v_162)) (or (or ?v_123 P7) ?v_112)) (or (or P9 ?v_169) ?v_154)) (or (or ?v_104 ?v_81) ?v_145)) (or (or ?v_234 ?v_230) P0)) (or (or ?v_186 ?v_181) ?v_4)) (or (or ?v_235 ?v_14) ?v_164)) (or (or P41 ?v_56) ?v_201)) (or (or ?v_114 ?v_205) ?v_86)) (or (or ?v_191 P13) ?v_112)) (or (or ?v_215 ?v_38) ?v_155)) (or (or ?v_117 P23) ?v_167)) (or (or ?v_54 ?v_236) ?v_212)) (or (or ?v_52 ?v_54) ?v_237)) (or (or ?v_170 ?v_230) ?v_163)) (or (or ?v_40 ?v_211) P23)) (or (or ?v_105 ?v_27) ?v_202)) (or (or ?v_188 ?v_204) ?v_63)) (or (or P23 ?v_230) ?v_112)) (or (or ?v_165 ?v_69) P47)) (or (or ?v_82 ?v_81) ?v_62)) (or (or ?v_0 ?v_81) ?v_149)) (or (or ?v_177 ?v_205) ?v_150)) (or (or P2 ?v_225) ?v_167)) (or (or P6 ?v_183) P38)) (or (or P5 P6) ?v_67)) (or (or ?v_96 ?v_49) ?v_63)) (or (or ?v_238 ?v_104) ?v_58)) (or (or ?v_4 ?v_49) ?v_175)) (or (or ?v_239 ?v_77) ?v_136)) (or (or ?v_220 ?v_140) ?v_122)) (or (or ?v_100 ?v_152) ?v_22)) (or (or ?v_183 ?v_218) ?v_141)) (or (or ?v_128 ?v_158) P25)) (or (or ?v_22 ?v_201) P33)) (or (or ?v_240 ?v_241) P12)) (or (or ?v_85 ?v_96) ?v_83)) (or (or ?v_115 ?v_67) P35)) (or (or ?v_163 ?v_28) ?v_173)) (or (or ?v_29 ?v_149) ?v_155)) (or (or ?v_209 ?v_53) ?v_181)) (or (or P18 ?v_56) ?v_22)) (or (or ?v_205 ?v_216) ?v_6)) (or (or ?v_223 ?v_33) ?v_240)) (or (or ?v_207 ?v_67) ?v_200)) (or (or ?v_119 ?v_242) ?v_211)) (or (or ?v_145 ?v_243) ?v_38)) (or (or P20 ?v_69) P44)) (or (or P43 ?v_192) ?v_190)) (or (or ?v_76 ?v_128) ?v_159)) (or (or ?v_202 ?v_225) P19)) (or (or P20 ?v_97) ?v_125)) (or (or P38 P5) ?v_11)) (or (or ?v_161 ?v_164) ?v_18)) (or (or ?v_97 ?v_244) ?v_212)) (or (or ?v_50 ?v_16) ?v_167)) (or (or ?v_122 P39) ?v_110)) (or (or ?v_109 ?v_64) ?v_154)) (or (or ?v_245 ?v_132) ?v_246)) (or (or ?v_230 ?v_56) ?v_52)) (or (or P48 ?v_256) ?v_179)) (or (or ?v_228 ?v_204) ?v_214)) (or (or ?v_143 ?v_231) ?v_15)) (or (or ?v_159 P46) P14)) (or (or ?v_73 ?v_66) P22)) (or (or ?v_210 P28) P11)) (or (or ?v_33 P42) ?v_58)) (or (or ?v_78 P21) ?v_15)) (or (or ?v_230 P30) P37)) (or (or ?v_163 ?v_107) ?v_169)) (or (or P39 ?v_152) ?v_247)) (or (or ?v_73 ?v_179) ?v_177)) (or (or ?v_166 ?v_141) ?v_98)) (or (or ?v_126 ?v_155) ?v_78)) (or (or ?v_180 P13) ?v_48)) (or (or P33 ?v_26) P26)) (or (or P19 ?v_53) ?v_155)) (or (or ?v_149 ?v_36) P35)) (or (or P25 ?v_247) ?v_14)) (or (or ?v_84 ?v_145) ?v_233)) (or (or ?v_71 P4) P25)) (or (or ?v_150 ?v_158) ?v_181)) (or (or ?v_241 ?v_126) ?v_149)) (or (or P44 ?v_58) ?v_145)) (or (or ?v_217 ?v_70) ?v_197)) (or (or ?v_64 ?v_53) ?v_112)) (or (or ?v_40 ?v_237) ?v_63)) (or (or ?v_189 ?v_201) ?v_234)) (or (or ?v_225 ?v_67) ?v_76)) (or (or ?v_227 ?v_236) ?v_153)) (or (or ?v_195 ?v_160) P30)) (or (or ?v_248 P15) ?v_247)) (or (or ?v_87 ?v_158) ?v_114)) (or (or ?v_55 ?v_106) ?v_36)) (or (or ?v_66 ?v_93) ?v_224)) (or (or ?v_81 P36) ?v_38)) (or (or ?v_131 ?v_234) ?v_160)) (or (or ?v_26 P44) ?v_241)) (or (or ?v_139 ?v_42) ?v_176)) (or (or ?v_152 ?v_33) P40)) (or (or ?v_186 ?v_251) ?v_100)) (or (or ?v_237 ?v_197) ?v_203)) (or (or P12 ?v_223) ?v_158)) (or (or ?v_193 ?v_83) P23)) (or (or ?v_44 ?v_249) ?v_197)) (or (or ?v_188 P7) ?v_34)) (or (or P22 ?v_129) ?v_64)) (or (or ?v_248 P25) ?v_58)) (or (or P34 ?v_40) ?v_6)) (or (or ?v_231 P2) P0)) (or (or ?v_130 ?v_94) ?v_14)) (or (or ?v_22 ?v_191) ?v_100)) (or (or ?v_225 ?v_98) ?v_234)) (or (or ?v_94 P13) ?v_119)) (or (or ?v_164 ?v_120) ?v_167)) (or (or P18 ?v_37) ?v_39)) (or (or ?v_241 P41) ?v_70)) (or (or ?v_73 ?v_50) ?v_80)) (or (or ?v_23 ?v_5) P20)) (or (or ?v_225 ?v_221) P15)) (or (or P0 ?v_55) ?v_247)) (or (or P4 ?v_174) ?v_96)) (or (or ?v_194 ?v_44) ?v_250)) (or (or P45 ?v_79) ?v_16)) (or (or ?v_236 ?v_227) ?v_11)) (or (or ?v_121 ?v_23) ?v_137)) (or (or ?v_13 ?v_159) ?v_251)) (or (or P18 ?v_249) ?v_157)) (or (or P34 ?v_142) ?v_20)) (or (or ?v_166 P2) ?v_99)) (or (or ?v_135 ?v_24) ?v_127)) (or (or ?v_67 ?v_87) ?v_245)) (or (or ?v_84 ?v_149) ?v_16)) (or (or P33 ?v_127) ?v_167)) (or (or ?v_244 P3) ?v_67)) (or (or ?v_238 ?v_252) ?v_134)) (or (or ?v_231 ?v_132) ?v_9)) (or (or ?v_217 ?v_237) ?v_49)) (or (or ?v_98 P47) ?v_33)) (or (or ?v_167 ?v_123) ?v_182)) (or (or P24 ?v_122) ?v_40)) (or (or ?v_33 ?v_153) P2)) (or (or ?v_206 ?v_192) ?v_81)) (or (or P17 P30) ?v_179)) (or (or P48 ?v_137) ?v_21)) (or (or ?v_196 ?v_63) ?v_252)) (or (or ?v_132 ?v_247) ?v_31)) (or (or ?v_48 ?v_216) ?v_15)) (or (or ?v_132 P32) P17)) (or (or ?v_66 ?v_115) ?v_24)) (or (or ?v_32 ?v_154) ?v_100)) (or (or ?v_198 ?v_189) ?v_85)) (or (or ?v_78 P48) ?v_85)) (or (or ?v_47 P41) ?v_240)) (or (or ?v_50 ?v_141) P12)) (or (or P6 P49) ?v_179)) (or (or ?v_253 ?v_144) ?v_70)) (or (or ?v_109 P8) ?v_24)) (or (or ?v_85 ?v_100) ?v_74)) (or (or ?v_224 ?v_11) ?v_195)) (or (or ?v_47 ?v_9) ?v_244)) (or (or ?v_40 ?v_227) ?v_254)) (or (or ?v_78 ?v_168) ?v_226)) (or (or ?v_143 ?v_166) ?v_89)) (or (or ?v_208 ?v_188) ?v_67)) (or (or ?v_161 ?v_38) ?v_22)) (or (or ?v_163 P19) ?v_121)) (or (or ?v_29 ?v_22) ?v_97)) (or (or ?v_166 ?v_178) ?v_54)) (or (or ?v_254 ?v_21) ?v_46)) (or (or ?v_254 ?v_15) P2)) (or (or ?v_219 ?v_206) ?v_33)) (or (or ?v_19 ?v_14) ?v_242)) (or (or ?v_119 ?v_255) ?v_122)) (or (or ?v_41 ?v_127) ?v_0)) (or (or P37 ?v_180) ?v_124)) (or (or ?v_197 ?v_159) ?v_27)) (or (or P5 ?v_211) ?v_10)) (or (or ?v_204 ?v_230) P10)) (or (or ?v_73 ?v_209) ?v_120)) (or (or ?v_240 ?v_27) ?v_91)) (or (or ?v_80 P36) ?v_102)) (or (or ?v_78 P46) P32)) (or (or ?v_256 ?v_21) ?v_94)) (or (or ?v_141 ?v_243) ?v_95)) (or (or ?v_120 ?v_223) ?v_182)) (or (or ?v_121 ?v_117) ?v_139)) (or (or P14 ?v_133) ?v_47)) (or (or ?v_48 ?v_69) ?v_50)) (or (or ?v_130 ?v_51) ?v_30)) (or (or ?v_200 ?v_38) ?v_144)) (or (or P39 ?v_23) ?v_161)) (or (or ?v_54 ?v_245) ?v_183)) (or (or ?v_257 ?v_154) P6)) (or (or ?v_193 ?v_93) ?v_205)) (or (or ?v_202 ?v_234) ?v_96)) (or (or P29 ?v_106) ?v_123)) (or (or P9 P22) (not ?v_201))) (or (or ?v_93 ?v_109) P20)) (or (or ?v_235 ?v_50) ?v_32)) (or (or P6 ?v_121) ?v_111)) (or (or ?v_104 ?v_117) ?v_230)) (or (or ?v_171 ?v_168) ?v_18)) (or (or ?v_142 ?v_124) ?v_221)) (or (or ?v_226 ?v_94) P19)) (or (or ?v_216 ?v_26) P8)) (or (or P17 ?v_4) ?v_45)) (or (or ?v_53 P22) P19)) (or (or P24 ?v_170) ?v_125)) (or (or ?v_22 ?v_94) P13)) (or (or ?v_258 ?v_259) P33)) (or (or ?v_29 ?v_157) ?v_107)) (or (or ?v_260 P40) ?v_180)) (or (or ?v_165 ?v_15) P22)) (or (or P30 ?v_145) ?v_225)) (or (or ?v_19 ?v_126) ?v_184)) (or (or ?v_53 ?v_199) ?v_15)) (or (or ?v_146 ?v_10) ?v_119)) (or (or ?v_110 P19) ?v_242)) (or (or ?v_195 ?v_136) ?v_18)) (or (or ?v_226 ?v_174) ?v_261)) (or (or ?v_22 ?v_121) ?v_186)) (or (or ?v_30 ?v_42) ?v_38)) (or (or ?v_212 ?v_209) ?v_135)) (or (or ?v_19 P6) ?v_149)) (or (or P19 ?v_158) ?v_79)) (or (or P25 ?v_177) ?v_50)) (or (or ?v_114 ?v_249) ?v_195)) (or (or ?v_33 ?v_40) ?v_90)) (or (or ?v_210 ?v_86) ?v_158)) (or (or ?v_51 P34) ?v_237)) (or (or P12 ?v_47) ?v_96)) (or (or ?v_203 ?v_47) ?v_109)) (or (or ?v_49 ?v_225) ?v_235)) (or (or ?v_92 ?v_120) ?v_170)) (or (or ?v_84 ?v_87) ?v_33)) (or (or P6 ?v_224) ?v_76)) (or (or ?v_247 ?v_198) P43)) (or (or ?v_184 ?v_164) P32)) (or (or ?v_247 ?v_175) ?v_244)) (or (or ?v_185 ?v_209) P34)) (or (or ?v_6 ?v_61) ?v_99)) (or (or P32 ?v_111) ?v_99)) (or (or ?v_57 ?v_214) ?v_103)) (or (or ?v_247 ?v_61) ?v_149)) (or (or ?v_67 ?v_200) ?v_41)) (or (or ?v_102 ?v_156) P3)) (or (or ?v_224 ?v_78) ?v_186)) (or (or P17 ?v_37) P29)) (or (or ?v_179 P6) ?v_209)) (or (or ?v_134 ?v_195) ?v_204)) (or (or ?v_4 ?v_157) ?v_46)) (or (or ?v_198 ?v_18) ?v_258)) (or (or ?v_62 ?v_82) P5)) (or (or P33 P12) ?v_4)) (or (or P3 ?v_56) ?v_79)) (or (or ?v_229 ?v_42) P5)) (or (or ?v_239 ?v_218) ?v_171)) (or (or ?v_187 ?v_47) P11)) (or (or ?v_36 ?v_30) ?v_64)) (or (or ?v_126 P36) ?v_174)) (or (or ?v_175 ?v_238) ?v_187)) (or (or ?v_13 ?v_92) ?v_99)) (or (or ?v_107 ?v_188) ?v_243)) (or (or ?v_195 ?v_28) ?v_155)) (or (or ?v_118 ?v_42) P22)) (or (or ?v_51 ?v_261) P0)) (or (or P29 ?v_96) P44)) (or (or P41 P49) ?v_11)) (or (or ?v_96 ?v_190) ?v_81)) (or (or ?v_18 ?v_198) ?v_183)) (or (or ?v_141 P8) P14)) (or (or P38 P9) P15)) (or (or ?v_62 ?v_110) ?v_175)) (or (or P5 ?v_20) ?v_70)) (or (or ?v_110 ?v_252) ?v_165)) (or (or ?v_55 P27) ?v_61)) (or (or ?v_156 ?v_157) ?v_159)) (or (or ?v_128 P34) P48)) (or (or ?v_104 ?v_19) ?v_102)) (or (or ?v_45 ?v_0) ?v_46)) (or (or ?v_14 P45) P41)) (or (or ?v_67 ?v_36) ?v_77)) (or (or ?v_92 ?v_211) P16)) (or (or ?v_241 ?v_46) ?v_231)) (or (or P33 ?v_72) P5)) (or (or P35 ?v_38) ?v_208)) (or (or ?v_189 ?v_199) ?v_81)) (or (or ?v_100 ?v_39) ?v_234)) (or (or P37 P29) ?v_230)) (or (or ?v_219 ?v_128) ?v_212)) (or (or P22 ?v_179) ?v_44)) (or (or ?v_159 ?v_123) P48)) (or (or ?v_0 ?v_38) ?v_132)) (or (or ?v_118 P41) ?v_193)) (or (or ?v_161 ?v_257) ?v_37)) (or (or ?v_225 P37) ?v_111)) (or (or ?v_160 ?v_122) ?v_115)) (or (or ?v_160 P35) ?v_180)) (or (or ?v_10 ?v_120) ?v_262)) (or (or P2 ?v_136) ?v_193)) (or (or ?v_0 ?v_191) ?v_89)) (or (or ?v_69 ?v_17) P43)) (or (or ?v_128 ?v_255) P42)) (or (or ?v_169 ?v_121) ?v_37)) (or (or ?v_229 ?v_111) ?v_124)) (or (or P7 ?v_66) ?v_163)) (or (or ?v_106 ?v_152) ?v_22)) (or (or ?v_99 ?v_9) P7)) (or (or P30 ?v_44) P29)) (or (or ?v_10 P44) ?v_33)) (or (or ?v_104 ?v_192) ?v_95)) (or (or ?v_45 ?v_146) ?v_89)) (or (or ?v_152 ?v_23) ?v_203)) (or (or P12 ?v_225) ?v_238)) (or (or ?v_46 ?v_127) ?v_228)) (or (or ?v_137 P22) ?v_67)) (or (or ?v_71 ?v_185) P40)) (or (or P23 ?v_169) ?v_219)) (or (or ?v_226 ?v_22) ?v_118)))))))))))))))))))))))))))))))))))))))))))
(check-sat)
(exit)
